As1Ga1   [FCC,FCC,cF8] (STD_PRIM doi:10.
1.224745
   0.00000000000000   2.34137719205306   2.34137719205306
   2.34137719205306   0.00000000000000   2.34137719205306
   2.34137719205306   2.34137719205306   0.00000000000000
As Ga
1 1 
Direct(2) [A1B1] 
   0.00000000000000   0.00000000000000   0.00000000000000      
   0.25000000000000   0.25000000000000   0.25000000000000     